c nIsolatedPIs 0
c maxPI 32
p cnf 183 454
c gate 33 -2 18 0
-2 -33 0
18 -33 0
2 -18 33 0
c gate 34 -1 17 0
-1 -34 0
17 -34 0
1 -17 34 0
c gate 35 -33 -34 0
-33 -35 0
-34 -35 0
33 34 35 0
c gate 36 2 -18 0
2 -36 0
-18 -36 0
-2 18 36 0
c gate 37 3 -19 0
3 -37 0
-19 -37 0
-3 19 37 0
c gate 38 -36 -37 0
-36 -38 0
-37 -38 0
36 37 38 0
c gate 39 -35 38 0
-35 -39 0
38 -39 0
35 -38 39 0
c gate 40 -4 20 0
-4 -40 0
20 -40 0
4 -20 40 0
c gate 41 -3 19 0
-3 -41 0
19 -41 0
3 -19 41 0
c gate 42 -40 -41 0
-40 -42 0
-41 -42 0
40 41 42 0
c gate 43 -39 42 0
-39 -43 0
42 -43 0
39 -42 43 0
c gate 44 5 -21 0
5 -44 0
-21 -44 0
-5 21 44 0
c gate 45 4 -20 0
4 -45 0
-20 -45 0
-4 20 45 0
c gate 46 -44 -45 0
-44 -46 0
-45 -46 0
44 45 46 0
c gate 47 -43 46 0
-43 -47 0
46 -47 0
43 -46 47 0
c gate 48 6 -22 0
6 -48 0
-22 -48 0
-6 22 48 0
c gate 49 -6 22 0
-6 -49 0
22 -49 0
6 -22 49 0
c gate 50 -48 -49 0
-48 -50 0
-49 -50 0
48 49 50 0
c gate 51 -5 21 0
-5 -51 0
21 -51 0
5 -21 51 0
c gate 52 50 -51 0
50 -52 0
-51 -52 0
-50 51 52 0
c gate 53 -47 52 0
-47 -53 0
52 -53 0
47 -52 53 0
c gate 54 8 24 0
8 -54 0
24 -54 0
-8 -24 54 0
c gate 55 -8 -24 0
-8 -55 0
-24 -55 0
8 24 55 0
c gate 56 -54 -55 0
-54 -56 0
-55 -56 0
54 55 56 0
c gate 57 -7 23 0
-7 -57 0
23 -57 0
7 -23 57 0
c gate 58 7 -23 0
7 -58 0
-23 -58 0
-7 23 58 0
c gate 59 -57 -58 0
-57 -59 0
-58 -59 0
57 58 59 0
c gate 60 2 18 0
2 -60 0
18 -60 0
-2 -18 60 0
c gate 61 1 17 0
1 -61 0
17 -61 0
-1 -17 61 0
c gate 62 -60 -61 0
-60 -62 0
-61 -62 0
60 61 62 0
c gate 63 -2 -18 0
-2 -63 0
-18 -63 0
2 18 63 0
c gate 64 -3 -19 0
-3 -64 0
-19 -64 0
3 19 64 0
c gate 65 -63 -64 0
-63 -65 0
-64 -65 0
63 64 65 0
c gate 66 -62 65 0
-62 -66 0
65 -66 0
62 -65 66 0
c gate 67 4 20 0
4 -67 0
20 -67 0
-4 -20 67 0
c gate 68 3 19 0
3 -68 0
19 -68 0
-3 -19 68 0
c gate 69 -67 -68 0
-67 -69 0
-68 -69 0
67 68 69 0
c gate 70 -66 69 0
-66 -70 0
69 -70 0
66 -69 70 0
c gate 71 -5 -21 0
-5 -71 0
-21 -71 0
5 21 71 0
c gate 72 -4 -20 0
-4 -72 0
-20 -72 0
4 20 72 0
c gate 73 -71 -72 0
-71 -73 0
-72 -73 0
71 72 73 0
c gate 74 -70 73 0
-70 -74 0
73 -74 0
70 -73 74 0
c gate 75 5 21 0
5 -75 0
21 -75 0
-5 -21 75 0
c gate 76 -50 -75 0
-50 -76 0
-75 -76 0
50 75 76 0
c gate 77 -74 76 0
-74 -77 0
76 -77 0
74 -76 77 0
c gate 78 -6 -22 0
-6 -78 0
-22 -78 0
6 22 78 0
c gate 79 -77 -78 0
-77 -79 0
-78 -79 0
77 78 79 0
c gate 80 -59 -79 0
-59 -80 0
-79 -80 0
59 79 80 0
c gate 81 56 80 0
56 -81 0
80 -81 0
-56 -80 81 0
c gate 82 11 27 0
11 -82 0
27 -82 0
-11 -27 82 0
c gate 83 -7 -23 0
-7 -83 0
-23 -83 0
7 23 83 0
c gate 84 -54 83 0
-54 -84 0
83 -84 0
54 -83 84 0
c gate 85 -9 -25 0
-9 -85 0
-25 -85 0
9 25 85 0
c gate 86 -55 -85 0
-55 -86 0
-85 -86 0
55 85 86 0
c gate 87 -84 86 0
-84 -87 0
86 -87 0
84 -86 87 0
c gate 88 9 25 0
9 -88 0
25 -88 0
-9 -25 88 0
c gate 89 10 26 0
10 -89 0
26 -89 0
-10 -26 89 0
c gate 90 -88 -89 0
-88 -90 0
-89 -90 0
88 89 90 0
c gate 91 -87 90 0
-87 -91 0
90 -91 0
87 -90 91 0
c gate 92 -11 -27 0
-11 -92 0
-27 -92 0
11 27 92 0
c gate 93 -10 -26 0
-10 -93 0
-26 -93 0
10 26 93 0
c gate 94 -92 -93 0
-92 -94 0
-93 -94 0
92 93 94 0
c gate 95 -91 94 0
-91 -95 0
94 -95 0
91 -94 95 0
c gate 96 -82 -95 0
-82 -96 0
-95 -96 0
82 95 96 0
c gate 97 -12 -28 0
-12 -97 0
-28 -97 0
12 28 97 0
c gate 98 12 28 0
12 -98 0
28 -98 0
-12 -28 98 0
c gate 99 -97 -98 0
-97 -99 0
-98 -99 0
97 98 99 0
c gate 100 -81 87 0
-81 -100 0
87 -100 0
81 -87 100 0
c gate 101 -88 -100 0
-88 -101 0
-100 -101 0
88 100 101 0
c gate 102 -93 -101 0
-93 -102 0
-101 -102 0
93 101 102 0
c gate 103 -82 -89 0
-82 -103 0
-89 -103 0
82 89 103 0
c gate 104 -102 103 0
-102 -104 0
103 -104 0
102 -103 104 0
c gate 105 -92 -104 0
-92 -105 0
-104 -105 0
92 104 105 0
c gate 106 -99 105 0
-99 -106 0
105 -106 0
99 -105 106 0
c gate 107 96 -106 0
96 -107 0
-106 -107 0
-96 106 107 0
c gate 108 99 -105 0
99 -108 0
-105 -108 0
-99 105 108 0
c gate 109 -96 -108 0
-96 -109 0
-108 -109 0
96 108 109 0
c gate 110 -107 -109 0
-107 -110 0
-109 -110 0
107 109 110 0
c gate 111 81 110 0
81 -111 0
110 -111 0
-81 -110 111 0
c gate 112 99 105 0
99 -112 0
105 -112 0
-99 -105 112 0
c gate 113 -14 -30 0
-14 -113 0
-30 -113 0
14 30 113 0
c gate 114 14 30 0
14 -114 0
30 -114 0
-14 -30 114 0
c gate 115 -113 -114 0
-113 -115 0
-114 -115 0
113 114 115 0
c gate 116 -97 115 0
-97 -116 0
115 -116 0
97 -115 116 0
c gate 117 13 -29 0
13 -117 0
-29 -117 0
-13 29 117 0
c gate 118 -13 29 0
-13 -118 0
29 -118 0
13 -29 118 0
c gate 119 -117 -118 0
-117 -119 0
-118 -119 0
117 118 119 0
c gate 120 -16 -32 0
-16 -120 0
-32 -120 0
16 32 120 0
c gate 121 16 32 0
16 -121 0
32 -121 0
-16 -32 121 0
c gate 122 -120 -121 0
-120 -122 0
-121 -122 0
120 121 122 0
c gate 123 -15 -31 0
-15 -123 0
-31 -123 0
15 31 123 0
c gate 124 15 31 0
15 -124 0
31 -124 0
-15 -31 124 0
c gate 125 -123 -124 0
-123 -125 0
-124 -125 0
123 124 125 0
c gate 126 122 125 0
122 -126 0
125 -126 0
-122 -125 126 0
c gate 127 -119 126 0
-119 -127 0
126 -127 0
119 -126 127 0
c gate 128 116 127 0
116 -128 0
127 -128 0
-116 -127 128 0
c gate 129 112 -128 0
112 -129 0
-128 -129 0
-112 128 129 0
c gate 130 -111 -129 0
-111 -130 0
-129 -130 0
111 129 130 0
c gate 131 -82 -92 0
-82 -131 0
-92 -131 0
82 92 131 0
c gate 132 10 -26 0
10 -132 0
-26 -132 0
-10 26 132 0
c gate 133 8 -24 0
8 -133 0
-24 -133 0
-8 24 133 0
c gate 134 -85 -88 0
-85 -134 0
-88 -134 0
85 88 134 0
c gate 135 -133 -134 0
-133 -135 0
-134 -135 0
133 134 135 0
c gate 136 -10 26 0
-10 -136 0
26 -136 0
10 -26 136 0
c gate 137 -9 25 0
-9 -137 0
25 -137 0
9 -25 137 0
c gate 138 -136 -137 0
-136 -138 0
-137 -138 0
136 137 138 0
c gate 139 -135 138 0
-135 -139 0
138 -139 0
135 -138 139 0
c gate 140 -132 -139 0
-132 -140 0
-139 -140 0
132 139 140 0
c gate 141 -48 -58 0
-48 -141 0
-58 -141 0
48 58 141 0
c gate 142 -53 141 0
-53 -142 0
141 -142 0
53 -141 142 0
c gate 143 -57 -142 0
-57 -143 0
-142 -143 0
57 142 143 0
c gate 144 -56 143 0
-56 -144 0
143 -144 0
56 -143 144 0
c gate 145 138 144 0
138 -145 0
144 -145 0
-138 -144 145 0
c gate 146 140 -145 0
140 -146 0
-145 -146 0
-140 145 146 0
c gate 147 -131 146 0
-131 -147 0
146 -147 0
131 -146 147 0
c gate 148 131 -146 0
131 -148 0
-146 -148 0
-131 146 148 0
c gate 149 -147 -148 0
-147 -149 0
-148 -149 0
147 148 149 0
c gate 150 140 -149 0
140 -150 0
-149 -150 0
-140 149 150 0
c gate 151 53 -59 0
53 -151 0
-59 -151 0
-53 59 151 0
c gate 152 -98 128 0
-98 -152 0
128 -152 0
98 -128 152 0
c gate 153 105 152 0
105 -153 0
152 -153 0
-105 -152 153 0
c gate 154 -53 -153 0
-53 -154 0
-153 -154 0
53 153 154 0
c gate 155 -130 154 0
-130 -155 0
154 -155 0
130 -154 155 0
c gate 156 -151 -155 0
-151 -156 0
-155 -156 0
151 155 156 0
c gate 157 -144 -156 0
-144 -157 0
-156 -157 0
144 156 157 0
c gate 158 56 141 0
56 -158 0
141 -158 0
-56 -141 158 0
c gate 159 143 158 0
143 -159 0
158 -159 0
-143 -158 159 0
c gate 160 -144 -159 0
-144 -160 0
-159 -160 0
144 159 160 0
c gate 161 -89 -93 0
-89 -161 0
-93 -161 0
89 93 161 0
c gate 162 -134 -161 0
-134 -162 0
-161 -162 0
134 161 162 0
c gate 163 -159 162 0
-159 -163 0
162 -163 0
159 -162 163 0
c gate 164 -160 -163 0
-160 -164 0
-163 -164 0
160 163 164 0
c gate 165 -157 -164 0
-157 -165 0
-164 -165 0
157 164 165 0
c gate 166 -150 165 0
-150 -166 0
165 -166 0
150 -165 166 0
c gate 167 -147 -166 0
-147 -167 0
-166 -167 0
147 166 167 0
c gate 168 -99 -115 0
-99 -168 0
-115 -168 0
99 115 168 0
c gate 169 -122 -125 0
-122 -169 0
-125 -169 0
122 125 169 0
c gate 170 119 169 0
119 -170 0
169 -170 0
-119 -169 170 0
c gate 171 168 170 0
168 -171 0
170 -171 0
-168 -170 171 0
c gate 172 147 171 0
147 -172 0
171 -172 0
-147 -171 172 0
c gate 173 -167 -172 0
-167 -173 0
-172 -173 0
167 172 173 0
c gate 174 -130 173 0
-130 -174 0
173 -174 0
130 -173 174 0
c gate 175 -77 -80 0
-77 -175 0
-80 -175 0
77 80 175 0
c gate 176 -110 -175 0
-110 -176 0
-175 -176 0
110 175 176 0
c gate 177 -112 -176 0
-112 -177 0
-176 -177 0
112 176 177 0
c gate 178 -129 -177 0
-129 -178 0
-177 -178 0
129 177 178 0
c gate 179 -173 178 0
-173 -179 0
178 -179 0
173 -178 179 0
c gate 180 -174 -179 0
-174 -180 0
-179 -180 0
174 179 180 0
c gate 181 -53 180 0
-53 -181 0
180 -181 0
53 -180 181 0
c gate 182 53 -173 0
53 -182 0
-173 -182 0
-53 173 182 0
c gate 183 -181 -182 0
-181 -183 0
-182 -183 0
181 182 183 0
c PO
183 0
